25
2 1 689
3 1 132
3 2 650
4 1 295
4 2 444
4 3 464
5 1 954
5 2 624
5 3 762
5 4 391
6 1 329
6 2 31
6 3 704
6 4 249
6 5 61
7 1 176
7 2 127
7 3 830
7 4 743
7 5 201
7 6 632
8 1 37
8 2 710
8 3 352
8 4 146
8 5 649
8 6 723
8 7 871
9 1 957
9 2 107
9 3 870
9 4 196
9 5 265
9 6 425
9 7 846
9 8 687
10 1 560
10 2 615
10 3 74
10 4 404
10 5 408
10 6 261
10 7 353
10 8 691
10 9 445
11 1 104
11 2 970
11 3 555
11 4 656
11 5 785
11 6 475
11 7 110
11 8 250
11 9 115
11 10 548
12 1 579
12 2 704
12 3 497
12 4 669
12 5 614
12 6 784
12 7 394
12 8 511
12 9 937
12 10 613
12 11 956
13 1 264
13 2 551
13 3 108
13 4 194
13 5 320
13 6 32
13 7 339
13 8 327
13 9 19
13 10 651
13 11 645
13 12 181
14 1 391
14 2 333
14 3 552
14 4 767
14 5 88
14 6 704
14 7 829
14 8 426
14 9 953
14 10 732
14 11 237
14 12 157
14 13 899
15 1 714
15 2 787
15 3 12
15 4 70
15 5 617
15 6 584
15 7 692
15 8 440
15 9 19
15 10 557
15 11 719
15 12 321
15 13 166
15 14 659
16 1 808
16 2 455
16 3 887
16 4 340
16 5 326
16 6 636
16 7 374
16 8 365
16 9 962
16 10 54
16 11 89
16 12 291
16 13 992
16 14 801
16 15 290
17 1 178
17 2 759
17 3 231
17 4 937
17 5 337
17 6 253
17 7 115
17 8 983
17 9 186
17 10 924
17 11 787
17 12 298
17 13 541
17 14 97
17 15 711
17 16 734
18 1 892
18 2 627
18 3 174
18 4 84
18 5 492
18 6 659
18 7 37
18 8 942
18 9 321
18 10 649
18 11 739
18 12 709
18 13 237
18 14 991
18 15 996
18 16 260
18 17 897
19 1 904
19 2 884
19 3 20
19 4 240
19 5 448
19 6 248
19 7 450
19 8 619
19 9 799
19 10 632
19 11 205
19 12 886
19 13 160
19 14 168
19 15 462
19 16 8
19 17 946
19 18 111
20 1 169
20 2 13
20 3 106
20 4 973
20 5 234
20 6 352
20 7 728
20 8 437
20 9 883
20 10 980
20 11 289
20 12 496
20 13 719
20 14 726
20 15 200
20 16 514
20 17 210
20 18 773
20 19 501
21 1 133
21 2 629
21 3 306
21 4 851
21 5 245
21 6 695
21 7 648
21 8 191
21 9 441
21 10 406
21 11 459
21 12 699
21 13 651
21 14 839
21 15 799
21 16 929
21 17 904
21 18 909
21 19 128
21 20 249
22 1 400
22 2 337
22 3 572
22 4 971
22 5 348
22 6 338
22 7 993
22 8 789
22 9 243
22 10 789
22 11 711
22 12 415
22 13 532
22 14 862
22 15 922
22 16 534
22 17 868
22 18 393
22 19 137
22 20 459
22 21 382
23 1 485
23 2 208
23 3 120
23 4 661
23 5 96
23 6 761
23 7 257
23 8 398
23 9 623
23 10 89
23 11 951
23 12 870
23 13 728
23 14 841
23 15 873
23 16 717
23 17 916
23 18 53
23 19 880
23 20 690
23 21 611
23 22 360
24 1 828
24 2 331
24 3 750
24 4 428
24 5 750
24 6 751
24 7 127
24 8 952
24 9 750
24 10 975
24 11 11
24 12 760
24 13 277
24 14 521
24 15 775
24 16 859
24 17 620
24 18 169
24 19 556
24 20 475
24 21 785
24 22 111
24 23 187
